p cnf 18 15
-1 11 13 -14 -15 -16 -18 0 
-2 3 14 -13 -15 -16 -18 0 
-3 2 15 -13 -14 -16 -18 0 
-1 11 16 -13 -14 -15 -18 0 
-4 5 17 0 
-5 4 17 0 
-6 -7 17 0 
-7 17 0 
-8 -6 17 0 
-3 2 13 -14 -15 -16 -18 0 
-2 3 13 -14 -15 -16 -18 0 
-9 17 0 
-6 -10 17 0 
-11 1 18 -13 -14 -15 -16 0 
-12 17 0 
